\ Model MCF
\ LP format - for model browsing. Use MPS format to capture full model detail.
Minimize
  x(0,0,1) + x(1,0,1) + x(2,0,1) + x(3,0,1) + x(0,0,2) + x(1,0,2) + x(2,0,2)
   + x(3,0,2) + 2 x(0,1,2) + 2 x(1,1,2) + 2 x(2,1,2) + 2 x(3,1,2)
   + 4 x(0,1,3) + 4 x(1,1,3) + 4 x(2,1,3) + 4 x(3,1,3) + 8 x(0,2,3)
   + 8 x(1,2,3) + 8 x(2,2,3) + 8 x(3,2,3) + 5 x(0,2,4) + 5 x(1,2,4)
   + 5 x(2,2,4) + 5 x(3,2,4) + 3 x(0,3,4) + 3 x(1,3,4) + 3 x(2,3,4)
   + 3 x(3,3,4)
Subject To
 Continuity(0,0): x(0,0,1) + x(0,0,2) = 15
 Continuity(0,1): - x(0,0,1) + x(0,1,2) + x(0,1,3) = 0
 Continuity(0,2): - x(0,0,2) - x(0,1,2) + x(0,2,3) + x(0,2,4) = 0
 Continuity(0,3): - x(0,1,3) - x(0,2,3) + x(0,3,4) = -15
 Continuity(0,4): - x(0,2,4) - x(0,3,4) = 0
 Continuity(1,0): x(1,0,1) + x(1,0,2) = 5
 Continuity(1,1): - x(1,0,1) + x(1,1,2) + x(1,1,3) = 0
 Continuity(1,2): - x(1,0,2) - x(1,1,2) + x(1,2,3) + x(1,2,4) = 0
 Continuity(1,3): - x(1,1,3) - x(1,2,3) + x(1,3,4) = 0
 Continuity(1,4): - x(1,2,4) - x(1,3,4) = -5
 Continuity(2,0): x(2,0,1) + x(2,0,2) = 0
 Continuity(2,1): - x(2,0,1) + x(2,1,2) + x(2,1,3) = 10
 Continuity(2,2): - x(2,0,2) - x(2,1,2) + x(2,2,3) + x(2,2,4) = 0
 Continuity(2,3): - x(2,1,3) - x(2,2,3) + x(2,3,4) = 0
 Continuity(2,4): - x(2,2,4) - x(2,3,4) = -10
 Continuity(3,0): x(3,0,1) + x(3,0,2) = 0
 Continuity(3,1): - x(3,0,1) + x(3,1,2) + x(3,1,3) = 0
 Continuity(3,2): - x(3,0,2) - x(3,1,2) + x(3,2,3) + x(3,2,4) = 5
 Continuity(3,3): - x(3,1,3) - x(3,2,3) + x(3,3,4) = 0
 Continuity(3,4): - x(3,2,4) - x(3,3,4) = -5
 Capacity(0): x(0,0,1) + x(1,0,1) + x(2,0,1) + x(3,0,1) <= 20
 Capacity(1): x(0,0,2) + x(1,0,2) + x(2,0,2) + x(3,0,2) <= 10
 Capacity(2): x(0,1,2) + x(1,1,2) + x(2,1,2) + x(3,1,2) <= 10
 Capacity(3): x(0,1,3) + x(1,1,3) + x(2,1,3) + x(3,1,3) <= 20
 Capacity(4): x(0,2,3) + x(1,2,3) + x(2,2,3) + x(3,2,3) <= 40
 Capacity(5): x(0,2,4) + x(1,2,4) + x(2,2,4) + x(3,2,4) <= 10
 Capacity(6): x(0,3,4) + x(1,3,4) + x(2,3,4) + x(3,3,4) <= 30
Bounds
End
